************************************************************************
file with basedata            : md376_.bas
initial value random generator: 10728
************************************************************************
projects                      :  1
jobs (incl. supersource/sink ):  22
horizon                       :  163
RESOURCES
  - renewable                 :  2   R
  - nonrenewable              :  2   N
  - doubly constrained        :  0   D
************************************************************************
PROJECT INFORMATION:
pronr.  #jobs rel.date duedate tardcost  MPM-Time
    1     20      0       24        2       24
************************************************************************
PRECEDENCE RELATIONS:
jobnr.    #modes  #successors   successors
   1        1          3           2   3   4
   2        3          2           5   9
   3        3          3           8  20  21
   4        3          3           6  15  17
   5        3          3           7  10  15
   6        3          3           9  11  19
   7        3          3           8  11  16
   8        3          1          12
   9        3          2          10  18
  10        3          2          13  14
  11        3          2          13  14
  12        3          1          17
  13        3          1          20
  14        3          2          20  21
  15        3          2          18  19
  16        3          2          17  18
  17        3          1          19
  18        3          1          21
  19        3          1          22
  20        3          1          22
  21        3          1          22
  22        1          0        
************************************************************************
REQUESTS/DURATIONS:
jobnr. mode duration  R 1  R 2  N 1  N 2
------------------------------------------------------------------------
  1      1     0       0    0    0    0
  2      1     4       7    3    7    7
         2     5       5    2    7    5
         3     9       4    2    6    3
  3      1     3       9    7    6    7
         2     6       6    5    3    6
         3     9       5    3    3    6
  4      1     1       6    7    5    5
         2     6       5    7    4    5
         3     7       2    4    4    5
  5      1     1       6    7    7   10
         2     7       4    6    6    9
         3     8       3    5    4    7
  6      1     7       8    7    7   10
         2     8       7    7    7    8
         3     9       4    6    7    8
  7      1     3       8    6    6    1
         2     4       8    4    6    1
         3     9       8    3    6    1
  8      1     2       9    7    6    6
         2     6       9    5    5    5
         3     9       8    3    3    4
  9      1     3      10    4    5    6
         2     8       9    4    3    5
         3    10       7    4    1    3
 10      1     3      10    8    9    6
         2     4       5    7    9    5
         3     8       1    6    8    5
 11      1     1       4    6    9    4
         2     5       3    6    9    4
         3     8       2    3    8    4
 12      1     2       5    5    8    3
         2     7       5    3    8    3
         3     9       4    2    8    2
 13      1     2       3    8   10    5
         2     3       2    8    9    4
         3     9       2    7    8    2
 14      1     1      10    3    9    5
         2     3       6    2    7    3
         3     4       5    2    3    1
 15      1     2       9   10    2    9
         2     6       8    7    1    7
         3     8       7    5    1    5
 16      1     4       6    7   10   10
         2     6       5    5    5    7
         3     7       4    2    4    6
 17      1     2       9    6    4    2
         2     4       9    6    3    2
         3     7       9    6    2    2
 18      1     1       9    8   10    7
         2     5       7    5   10    6
         3     6       7    5    9    4
 19      1     4       6    3    6    7
         2     6       3    3    5    7
         3     9       3    2    5    6
 20      1     8       4    8    3    5
         2     9       4    5    3    5
         3    10       1    2    2    5
 21      1     6       6   10    8    8
         2     8       6    8    2    6
         3     8       6    7    3    4
 22      1     0       0    0    0    0
************************************************************************
RESOURCEAVAILABILITIES:
  R 1  R 2  N 1  N 2
   29   24  126  113
************************************************************************
MAXIMAL LAGS:
from  to  type  delay
    1   12   ES      0
    1    2   ES      0
    2   12   ES      0
    1    3   ES      0
    3   12   ES      0
    1    4   ES      0
    4   12   ES      0
    1    5   ES      0
    5   12   ES      0
    1    6   ES      0
    6   12   ES      0
    1    7   ES      0
    7   12   ES      0
    1    8   ES      0
    8   12   ES      0
    1    9   ES      0
    9   12   ES      0
    1   10   ES      0
   10   12   ES      0
    1   11   ES      0
   11   12   ES      0
    1   12   ES      0
    2    5   SS      3
    2    5   SE     -3
    2    5   ES    -10
    2    5   EE      8
    2    9   SS     -6
    2    9   SE     -2
    2    9   ES      6
    2    9   EE      8
    3    8   SS      9
    3    8   SE      1
    3    8   ES      1
    3    8   EE     -2
    3   20   SS     -5
    3   20   SE     -5
    3   20   ES      6
    3   20   EE    -11
    3   21   SS     -5
    3   21   SE      0
    3   21   ES     -5
    3   21   EE      9
    4    6   SS      4
    4    6   SE     -1
    4    6   ES      3
    4    6   EE     -4
    4   15   SS     -6
    4   15   SE     -5
    4   15   ES      7
    4   15   EE     -9
    4   17   SS      6
    4   17   SE     -2
    4   17   ES      4
    4   17   EE    -12
    5    7   SS     10
    5    7   SE    -12
    5    7   ES    -12
    5    7   EE      5
    5   10   SS     -3
    5   10   SE     -9
   10    5   SE      0
    5   10   ES      0
    5   10   EE     -8
    5   15   SS      9
    5   15   SE      0
    5   15   ES      3
    5   15   EE     -1
    6    9   SS    -11
    6    9   SE    -10
    6    9   ES     10
    6    9   EE     -3
    6   11   SS      1
    6   11   SE      4
    6   11   ES     -5
    6   11   EE      8
    6   19   SS     -9
    6   19   SE     -4
    6   19   ES      0
    6   19   EE     -1
    7    8   SS    -12
    7    8   SE    -12
    7    8   ES     -5
    7    8   EE      6
    7   11   SS     -4
    7   11   SE     12
    7   11   ES      8
    7   11   EE     -1
    7   16   SS     -1
    7   16   SE      4
    7   16   ES     10
    7   16   EE      9
    9   10   SS     11
    9   10   SE     10
    9   10   ES     -3
    9   10   EE      0
    9   18   SS     11
    9   18   SE     -3
    9   18   ES      8
    9   18   EE     -7
   10   13   SS    -11
   10   13   SE     -9
   10   13   ES      4
   10   13   EE     -9
   10   14   SS     12
   10   14   SE      8
   10   14   ES      7
   10   14   EE    -12
   11   13   SS     -8
   11   13   SE     -6
   11   13   ES     -7
   11   13   EE    -12
   11   14   SS     -9
   11   14   SE      0
   11   14   ES     -1
   11   14   EE     -9
   12   17   SS      7
   12   17   SE      4
   12   17   ES      5
   12   17   EE      7
   13   20   SS    -12
   13   20   SE      0
   13   20   ES     11
   13   20   EE    -12
   14   20   SS      7
   14   20   SE     -9
   14   20   ES      3
   14   20   EE     12
   14   21   SS     -1
   14   21   SE    -11
   14   21   ES      2
   14   21   EE     -2
   15   18   SS     -9
   15   18   SE     11
   15   18   ES      6
   15   18   EE     -7
   15   19   SS      0
   15   19   SE      2
   15   19   ES      3
   15   19   EE      8
   16   17   SS     -1
   16   17   SE    -12
   16   17   ES     -4
   16   17   EE      0
   16   18   SS     -9
   16   18   SE      0
   16   18   ES      8
   16   18   EE     -7
   17   19   SS      9
   17   19   SE     -8
   17   19   ES      9
   17   19   EE      8
   18   21   SS      4
   18   21   SE      8
   18   21   ES     -3
   18   21   EE     -6
   19   22   SS     11
   19   22   SE      7
   19   22   ES      9
   19   22   EE      1
   20   22   SS     -1
   20   22   SE      1
   20   22   ES      5
   20   22   EE     11
   21   22   SS      8
   21   22   SE      5
   21   22   ES     12
   21   22   EE      8
************************************************************************
